(set-info :smt-lib-version 2.6)
(set-logic UF)
(set-info :source |Benchmarks from the paper: "Extending Sledgehammer with SMT Solvers" by Jasmin Blanchette, Sascha Bohme, and Lawrence C. Paulson, CADE 2011.  Translated to SMT2 by Andrew Reynolds and Morgan Deters.|)
(set-info :category "industrial")
(set-info :status sat)
(declare-sort S1 0)
(declare-sort S2 0)
(declare-sort S3 0)
(declare-sort S4 0)
(declare-sort S5 0)
(declare-sort S6 0)
(declare-sort S7 0)
(declare-sort S8 0)
(declare-sort S9 0)
(declare-sort S10 0)
(declare-sort S11 0)
(declare-sort S12 0)
(declare-sort S13 0)
(declare-sort S14 0)
(declare-sort S15 0)
(declare-sort S16 0)
(declare-sort S17 0)
(declare-sort S18 0)
(declare-sort S19 0)
(declare-sort S20 0)
(declare-fun f1 () S1)
(declare-fun f2 () S1)
(declare-fun f3 (S2 S3) S4)
(declare-fun f4 (S5 S4) S2)
(declare-fun f5 () S5)
(declare-fun f6 () S2)
(declare-fun f7 () S3)
(declare-fun f8 () S3)
(declare-fun f9 () S4)
(declare-fun f10 (S3 S3) S1)
(declare-fun f11 (S6 S3) S3)
(declare-fun f12 (S7 S3) S6)
(declare-fun f13 () S7)
(declare-fun f14 () S3)
(declare-fun f15 (S8 S3) S9)
(declare-fun f16 (S10 S9) S8)
(declare-fun f17 () S10)
(declare-fun f18 () S9)
(declare-fun f19 () S3)
(declare-fun f20 () S4)
(declare-fun f21 (S3 S3) S1)
(declare-fun f22 (S9 S9) S1)
(declare-fun f23 (S9 S9) S1)
(declare-fun f24 (S11 S4) S4)
(declare-fun f25 (S12 S4) S11)
(declare-fun f26 () S12)
(declare-fun f27 () S4)
(declare-fun f28 (S13 S7) S7)
(declare-fun f29 (S14 S3) S13)
(declare-fun f30 () S14)
(declare-fun f31 () S7)
(declare-fun f32 (S15 S12) S5)
(declare-fun f33 (S16 S4) S15)
(declare-fun f34 () S16)
(declare-fun f35 () S12)
(declare-fun f36 (S17 S18) S10)
(declare-fun f37 (S19 S9) S17)
(declare-fun f38 () S19)
(declare-fun f39 () S18)
(declare-fun f40 (S20 S9) S9)
(declare-fun f41 (S18 S9) S20)
(declare-fun f42 () S9)
(assert (not (= f1 f2)))
(assert (not (not (= (f3 (f4 f5 (f3 f6 f7)) f8) f9))))
(assert (= (f10 f8 f7) f1))
(assert (forall ((?v0 S3)) (= (f3 (f4 f5 (f3 f6 ?v0)) ?v0) f9)))
(assert (forall ((?v0 S3)) (= (f11 (f12 f13 f14) ?v0) f14)))
(assert (forall ((?v0 S3)) (= (f3 (f4 f5 f9) ?v0) f9)))
(assert (forall ((?v0 S3)) (= (f15 (f16 f17 f18) ?v0) f18)))
(assert (= (f10 f19 f8) f1))
(assert (forall ((?v0 S3)) (= (= f14 ?v0) (= ?v0 f14))))
(assert (forall ((?v0 S4)) (= (= f9 ?v0) (= ?v0 f9))))
(assert (forall ((?v0 S9)) (= (= f18 ?v0) (= ?v0 f18))))
(assert (forall ((?v0 S3)) (not (= (f3 f6 ?v0) f20))))
(assert (forall ((?v0 S3)) (= (f11 (f12 f13 ?v0) f19) f14)))
(assert (forall ((?v0 S4)) (= (f3 (f4 f5 ?v0) f19) f9)))
(assert (forall ((?v0 S9)) (= (f15 (f16 f17 ?v0) f19) f18)))
(assert (forall ((?v0 S3)) (= (f11 (f12 f13 ?v0) f19) f14)))
(assert (forall ((?v0 S4)) (= (f3 (f4 f5 ?v0) f19) f9)))
(assert (forall ((?v0 S9)) (= (f15 (f16 f17 ?v0) f19) f18)))
(assert (forall ((?v0 S3) (?v1 S3)) (=> (= (f21 f14 ?v0) f1) (= (f21 f14 (f11 (f12 f13 ?v0) ?v1)) f1))))
(assert (forall ((?v0 S9) (?v1 S3)) (=> (= (f22 f18 ?v0) f1) (= (f22 f18 (f15 (f16 f17 ?v0) ?v1)) f1))))
(assert (forall ((?v0 S3) (?v1 S3) (?v2 S3)) (let ((?v_0 (f12 f13 ?v0))) (=> (= (f10 f14 ?v0) f1) (= (= (f11 ?v_0 ?v1) (f11 ?v_0 ?v2)) (= ?v1 ?v2))))))
(assert (forall ((?v0 S9) (?v1 S3) (?v2 S3)) (let ((?v_0 (f16 f17 ?v0))) (=> (= (f23 f18 ?v0) f1) (= (= (f15 ?v_0 ?v1) (f15 ?v_0 ?v2)) (= ?v1 ?v2))))))
(assert (forall ((?v0 S4) (?v1 S3)) (let ((?v_0 (f25 f26 f9))) (= (f24 ?v_0 (f3 (f4 f5 ?v0) ?v1)) (f3 (f4 f5 (f24 ?v_0 ?v0)) ?v1)))))
(assert (not (= f27 f9)))
(assert (= f13 (f28 (f29 f30 f14) f31)))
(assert (= f5 (f32 (f33 f34 f9) f35)))
(assert (= f17 (f36 (f37 f38 f18) f39)))
(assert (forall ((?v0 S3) (?v1 S3) (?v2 S3)) (let ((?v_0 (f12 f31 ?v0))) (=> (= (f10 f19 ?v0) f1) (= (f3 (f4 f5 (f3 f6 (f11 ?v_0 ?v1))) (f11 ?v_0 ?v2)) (f3 (f4 f5 (f3 f6 ?v1)) ?v2))))))
(assert (not (= f27 f20)))
(assert (forall ((?v0 S9)) (= (f40 (f41 f39 f42) ?v0) f42)))
(assert (forall ((?v0 S3)) (= (f11 (f12 f31 f19) ?v0) f19)))
(assert (forall ((?v0 S4)) (= (f24 (f25 f35 f20) ?v0) f20)))
(assert (forall ((?v0 S9)) (= (= f42 ?v0) (= ?v0 f42))))
(assert (forall ((?v0 S3)) (= (= f19 ?v0) (= ?v0 f19))))
(assert (forall ((?v0 S4)) (= (= f20 ?v0) (= ?v0 f20))))
(assert (forall ((?v0 S3) (?v1 S3)) (= (= (f10 f19 (f11 (f12 f13 ?v0) ?v1)) f1) (or (= (f10 f19 ?v0) f1) (= ?v1 f19)))))
(assert (forall ((?v0 S9)) (= (f40 (f41 f39 ?v0) f42) f42)))
(assert (forall ((?v0 S3)) (= (f11 (f12 f31 ?v0) f19) f19)))
(assert (forall ((?v0 S4)) (= (f24 (f25 f35 ?v0) f20) f20)))
(assert (forall ((?v0 S4) (?v1 S4)) (= (f24 (f25 f35 ?v0) ?v1) (f24 (f25 f35 ?v1) ?v0))))
(assert (forall ((?v0 S9) (?v1 S9)) (= (f40 (f41 f39 ?v0) ?v1) (f40 (f41 f39 ?v1) ?v0))))
(assert (forall ((?v0 S3) (?v1 S3)) (= (f11 (f12 f31 ?v0) ?v1) (f11 (f12 f31 ?v1) ?v0))))
(assert (forall ((?v0 S4) (?v1 S4) (?v2 S4)) (let ((?v_1 (f25 f35 ?v0)) (?v_0 (f25 f35 ?v1))) (= (f24 ?v_1 (f24 ?v_0 ?v2)) (f24 ?v_0 (f24 ?v_1 ?v2))))))
(assert (forall ((?v0 S9) (?v1 S9) (?v2 S9)) (let ((?v_1 (f41 f39 ?v0)) (?v_0 (f41 f39 ?v1))) (= (f40 ?v_1 (f40 ?v_0 ?v2)) (f40 ?v_0 (f40 ?v_1 ?v2))))))
(assert (forall ((?v0 S3) (?v1 S3) (?v2 S3)) (let ((?v_1 (f12 f31 ?v0)) (?v_0 (f12 f31 ?v1))) (= (f11 ?v_1 (f11 ?v_0 ?v2)) (f11 ?v_0 (f11 ?v_1 ?v2))))))
(assert (forall ((?v0 S4) (?v1 S4) (?v2 S4)) (let ((?v_0 (f25 f35 ?v0))) (= (f24 ?v_0 (f24 (f25 f35 ?v1) ?v2)) (f24 (f25 f35 (f24 ?v_0 ?v1)) ?v2)))))
(assert (forall ((?v0 S9) (?v1 S9) (?v2 S9)) (let ((?v_0 (f41 f39 ?v0))) (= (f40 ?v_0 (f40 (f41 f39 ?v1) ?v2)) (f40 (f41 f39 (f40 ?v_0 ?v1)) ?v2)))))
(assert (forall ((?v0 S3) (?v1 S3) (?v2 S3)) (let ((?v_0 (f12 f31 ?v0))) (= (f11 ?v_0 (f11 (f12 f31 ?v1) ?v2)) (f11 (f12 f31 (f11 ?v_0 ?v1)) ?v2)))))
(assert (forall ((?v0 S9) (?v1 S3)) (= (= (f15 (f16 f17 ?v0) ?v1) f42) (and (= ?v0 f42) (not (= ?v1 f19))))))
(assert (forall ((?v0 S3) (?v1 S3)) (= (= (f11 (f12 f13 ?v0) ?v1) f19) (and (= ?v0 f19) (not (= ?v1 f19))))))
(assert (forall ((?v0 S4) (?v1 S3)) (= (= (f3 (f4 f5 ?v0) ?v1) f20) (and (= ?v0 f20) (not (= ?v1 f19))))))
(assert (forall ((?v0 S4) (?v1 S4) (?v2 S4)) (let ((?v_0 (f25 f35 ?v0))) (= (f24 (f25 f35 (f24 ?v_0 ?v1)) ?v2) (f24 ?v_0 (f24 (f25 f35 ?v1) ?v2))))))
(assert (forall ((?v0 S9) (?v1 S9) (?v2 S9)) (let ((?v_0 (f41 f39 ?v0))) (= (f40 (f41 f39 (f40 ?v_0 ?v1)) ?v2) (f40 ?v_0 (f40 (f41 f39 ?v1) ?v2))))))
(assert (forall ((?v0 S3) (?v1 S3) (?v2 S3)) (let ((?v_0 (f12 f31 ?v0))) (= (f11 (f12 f31 (f11 ?v_0 ?v1)) ?v2) (f11 ?v_0 (f11 (f12 f31 ?v1) ?v2))))))
(assert (forall ((?v0 S4) (?v1 S4) (?v2 S4)) (let ((?v_0 (f25 f35 ?v0))) (= (f24 (f25 f35 (f24 ?v_0 ?v1)) ?v2) (f24 ?v_0 (f24 (f25 f35 ?v1) ?v2))))))
(assert (forall ((?v0 S9) (?v1 S9) (?v2 S9)) (let ((?v_0 (f41 f39 ?v0))) (= (f40 (f41 f39 (f40 ?v_0 ?v1)) ?v2) (f40 ?v_0 (f40 (f41 f39 ?v1) ?v2))))))
(assert (forall ((?v0 S3) (?v1 S3) (?v2 S3)) (let ((?v_0 (f12 f31 ?v0))) (= (f11 (f12 f31 (f11 ?v_0 ?v1)) ?v2) (f11 ?v_0 (f11 (f12 f31 ?v1) ?v2))))))
(assert (forall ((?v0 S4) (?v1 S4) (?v2 S4)) (let ((?v_0 (f25 f35 ?v0))) (= (f24 (f25 f35 (f24 ?v_0 ?v1)) ?v2) (f24 (f25 f35 (f24 ?v_0 ?v2)) ?v1)))))
(assert (forall ((?v0 S9) (?v1 S9) (?v2 S9)) (let ((?v_0 (f41 f39 ?v0))) (= (f40 (f41 f39 (f40 ?v_0 ?v1)) ?v2) (f40 (f41 f39 (f40 ?v_0 ?v2)) ?v1)))))
(assert (forall ((?v0 S3) (?v1 S3) (?v2 S3)) (let ((?v_0 (f12 f31 ?v0))) (= (f11 (f12 f31 (f11 ?v_0 ?v1)) ?v2) (f11 (f12 f31 (f11 ?v_0 ?v2)) ?v1)))))
(assert (forall ((?v0 S4) (?v1 S4) (?v2 S4) (?v3 S4)) (let ((?v_0 (f25 f35 ?v0)) (?v_1 (f24 (f25 f35 ?v2) ?v3))) (= (f24 (f25 f35 (f24 ?v_0 ?v1)) ?v_1) (f24 ?v_0 (f24 (f25 f35 ?v1) ?v_1))))))
(assert (forall ((?v0 S9) (?v1 S9) (?v2 S9) (?v3 S9)) (let ((?v_0 (f41 f39 ?v0)) (?v_1 (f40 (f41 f39 ?v2) ?v3))) (= (f40 (f41 f39 (f40 ?v_0 ?v1)) ?v_1) (f40 ?v_0 (f40 (f41 f39 ?v1) ?v_1))))))
(assert (forall ((?v0 S3) (?v1 S3) (?v2 S3) (?v3 S3)) (let ((?v_0 (f12 f31 ?v0)) (?v_1 (f11 (f12 f31 ?v2) ?v3))) (= (f11 (f12 f31 (f11 ?v_0 ?v1)) ?v_1) (f11 ?v_0 (f11 (f12 f31 ?v1) ?v_1))))))
(assert (forall ((?v0 S4) (?v1 S4) (?v2 S4) (?v3 S4)) (let ((?v_1 (f25 f35 (f24 (f25 f35 ?v0) ?v1))) (?v_0 (f25 f35 ?v2))) (= (f24 ?v_1 (f24 ?v_0 ?v3)) (f24 ?v_0 (f24 ?v_1 ?v3))))))
(assert (forall ((?v0 S9) (?v1 S9) (?v2 S9) (?v3 S9)) (let ((?v_1 (f41 f39 (f40 (f41 f39 ?v0) ?v1))) (?v_0 (f41 f39 ?v2))) (= (f40 ?v_1 (f40 ?v_0 ?v3)) (f40 ?v_0 (f40 ?v_1 ?v3))))))
(assert (forall ((?v0 S3) (?v1 S3) (?v2 S3) (?v3 S3)) (let ((?v_1 (f12 f31 (f11 (f12 f31 ?v0) ?v1))) (?v_0 (f12 f31 ?v2))) (= (f11 ?v_1 (f11 ?v_0 ?v3)) (f11 ?v_0 (f11 ?v_1 ?v3))))))
(assert (forall ((?v0 S4) (?v1 S4) (?v2 S4) (?v3 S4)) (let ((?v_0 (f25 f35 ?v0))) (= (f24 (f25 f35 (f24 ?v_0 ?v1)) (f24 (f25 f35 ?v2) ?v3)) (f24 (f25 f35 (f24 ?v_0 ?v2)) (f24 (f25 f35 ?v1) ?v3))))))
(assert (forall ((?v0 S9) (?v1 S9) (?v2 S9) (?v3 S9)) (let ((?v_0 (f41 f39 ?v0))) (= (f40 (f41 f39 (f40 ?v_0 ?v1)) (f40 (f41 f39 ?v2) ?v3)) (f40 (f41 f39 (f40 ?v_0 ?v2)) (f40 (f41 f39 ?v1) ?v3))))))
(assert (forall ((?v0 S3) (?v1 S3) (?v2 S3) (?v3 S3)) (let ((?v_0 (f12 f31 ?v0))) (= (f11 (f12 f31 (f11 ?v_0 ?v1)) (f11 (f12 f31 ?v2) ?v3)) (f11 (f12 f31 (f11 ?v_0 ?v2)) (f11 (f12 f31 ?v1) ?v3))))))
(assert (forall ((?v0 S9) (?v1 S18) (?v2 S9)) (= (f15 (f16 (f36 (f37 f38 ?v0) ?v1) ?v2) f19) ?v0)))
(assert (forall ((?v0 S4) (?v1 S12) (?v2 S4)) (= (f3 (f4 (f32 (f33 f34 ?v0) ?v1) ?v2) f19) ?v0)))
(assert (forall ((?v0 S3) (?v1 S7) (?v2 S3)) (= (f11 (f12 (f28 (f29 f30 ?v0) ?v1) ?v2) f19) ?v0)))
(assert (forall ((?v0 S4) (?v1 S4) (?v2 S3)) (=> (not (= ?v0 f20)) (= (f3 (f4 f5 (f24 (f25 f26 ?v1) ?v0)) ?v2) (f24 (f25 f26 (f3 (f4 f5 ?v1) ?v2)) (f3 (f4 f5 ?v0) ?v2))))))
(assert (forall ((?v0 S9) (?v1 S3)) (=> (= (f23 f42 ?v0) f1) (= (f23 f42 (f15 (f16 f17 ?v0) ?v1)) f1))))
(assert (forall ((?v0 S3) (?v1 S3)) (=> (= (f10 f19 ?v0) f1) (= (f10 f19 (f11 (f12 f13 ?v0) ?v1)) f1))))
(check-sat)
(exit)
